Minimize
	value: tt

Subject to
tt + 1000 s_1_1 > 0.0
tt - t_1_1 - 1000.735967 s_1_1  + 0.735967 s_1_7  > -999.573033
tt + 1000 s_2_1 > 0.0
tt - t_2_1 - 1000.549630 s_2_1  + 0.549630 s_2_7  > -989.246200
tt + 1000 s_1_2 > 0.0
tt - t_1_2 - 1000.735967 s_1_2  + 0.735967 s_1_8  > -999.468736
tt + 1000 s_2_2 > 0.0
tt - t_2_2 - 1000.549630 s_2_2  + 0.549630 s_2_8  > -989.083700
tt + 1000 s_1_3 > 0.0
tt - t_1_3 - 1000.735967 s_1_3  + 0.735967 s_1_8  > -999.346558
tt + 1000 s_2_3 > 0.0
tt - t_2_3 - 1000.549630 s_2_3  + 0.549630 s_2_8  > -985.421300
tt + 1000 s_1_4 > 0.0
tt - t_1_4 - 1001.471935 s_1_4  + 0.735967 s_1_8  + 0.735967 s_1_3  > -999.602200
tt + 1000 s_2_4 > 0.0
tt - t_2_4 - 1001.099261 s_2_4  + 0.549630 s_2_8  + 0.549630 s_2_3  > -989.085700
tt + 1000 s_1_5 > 0.0
tt - t_1_5 - 1001.471935 s_1_5  + 0.735967 s_1_7  + 0.735967 s_1_8  > -999.655422
tt + 1000 s_2_5 > 0.0
tt - t_2_5 - 1001.099261 s_2_5  + 0.549630 s_2_7  + 0.549630 s_2_8  > -991.566100
tt + 1000 s_1_6 > 0.0
tt - t_1_6 - 1003.679837 s_1_6  + 0.735967 s_1_5  + 0.735967 s_1_3  + 0.735967 s_1_1  + 0.735967 s_1_4  + 0.735967 s_1_2  > -999.818900
tt + 1000 s_2_6 > 0.0
tt - t_2_6 - 1002.748152 s_2_6  + 0.549630 s_2_5  + 0.549630 s_2_3  + 0.549630 s_2_1  + 0.549630 s_2_4  + 0.549630 s_2_2  > -998.664800
tt + 1000 s_1_7 > 0.0
tt - t_1_7 - 1000.000000 s_1_7  > -997.693211
tt + 1000 s_2_7 > 0.0
tt - t_2_7 - 1000.000000 s_2_7  > -984.837026
tt + 1000 s_1_8 > 0.0
tt - t_1_8 - 1000.000000 s_1_8  > -999.322325
tt + 1000 s_2_8 > 0.0
tt - t_2_8 - 1000.000000 s_2_8  > -993.941500
s_1_1 + s_2_1 = 1
s_1_2 + s_2_2 = 1
s_1_3 + s_2_3 = 1
s_1_4 + s_2_4 = 1
s_1_5 + s_2_5 = 1
s_1_6 + s_2_6 = 1
s_1_7 + s_2_7 = 1
s_1_8 + s_2_8 = 1
s_1_1 + s_1_2 + 1000 r_1_1_2 >= 2
- s_1_1 - s_1_2 - 1000 r_1_1_2 >= -1001
t_1_1 - t_1_2 - 1000.000000 u_1_1_2 - 0.735967 s_1_2  + 0.735967 s_1_8  + 2000.000000 r_1_1_2 > -999.468736
s_2_1 + s_2_2 + 1000 r_2_1_2 >= 2
- s_2_1 - s_2_2 - 1000 r_2_1_2 >= -1001
t_2_1 - t_2_2 - 1000.000000 u_2_1_2 - 0.549630 s_2_2  + 0.549630 s_2_8  + 2000.000000 r_2_1_2 > -989.083700
s_1_1 + s_1_3 + 1000 r_1_1_3 >= 2
- s_1_1 - s_1_3 - 1000 r_1_1_3 >= -1001
t_1_1 - t_1_3 - 1000.000000 u_1_1_3 - 0.735967 s_1_3  + 0.735967 s_1_8  + 2000.000000 r_1_1_3 > -999.346558
s_2_1 + s_2_3 + 1000 r_2_1_3 >= 2
- s_2_1 - s_2_3 - 1000 r_2_1_3 >= -1001
t_2_1 - t_2_3 - 1000.000000 u_2_1_3 - 0.549630 s_2_3  + 0.549630 s_2_8  + 2000.000000 r_2_1_3 > -985.421300
s_1_1 + s_1_4 + 1000 r_1_1_4 >= 2
- s_1_1 - s_1_4 - 1000 r_1_1_4 >= -1001
t_1_1 - t_1_4 - 1000.000000 u_1_1_4 - 1.471935 s_1_4  + 0.735967 s_1_8  + 0.735967 s_1_3  + 2000.000000 r_1_1_4 > -999.602200
s_2_1 + s_2_4 + 1000 r_2_1_4 >= 2
- s_2_1 - s_2_4 - 1000 r_2_1_4 >= -1001
t_2_1 - t_2_4 - 1000.000000 u_2_1_4 - 1.099261 s_2_4  + 0.549630 s_2_8  + 0.549630 s_2_3  + 2000.000000 r_2_1_4 > -989.085700
s_1_1 + s_1_5 + 1000 r_1_1_5 >= 2
- s_1_1 - s_1_5 - 1000 r_1_1_5 >= -1001
t_1_1 - t_1_5 - 1000.000000 u_1_1_5 - 1.471935 s_1_5  + 0.735967 s_1_7  + 0.735967 s_1_8  + 2000.000000 r_1_1_5 > -999.655422
s_2_1 + s_2_5 + 1000 r_2_1_5 >= 2
- s_2_1 - s_2_5 - 1000 r_2_1_5 >= -1001
t_2_1 - t_2_5 - 1000.000000 u_2_1_5 - 1.099261 s_2_5  + 0.549630 s_2_7  + 0.549630 s_2_8  + 2000.000000 r_2_1_5 > -991.566100
t_1_6 - t_1_1 - 1000.735967 s_1_1  + 0.735967 s_1_7  > -999.573033
t_1_6 - t_2_1 - 1000.549630 s_2_1  + 0.549630 s_2_7  > -989.246200
t_2_6 - t_1_1 - 1000.735967 s_1_1  + 0.735967 s_1_7  > -999.573033
t_2_6 - t_2_1 - 1000.549630 s_2_1  + 0.549630 s_2_7  > -989.246200
t_1_1 - t_1_7 - 1000.000000 s_1_7  > -997.693211
t_1_1 - t_2_7 - 1000.000000 s_2_7  > -984.837026
t_2_1 - t_1_7 - 1000.000000 s_1_7  > -997.693211
t_2_1 - t_2_7 - 1000.000000 s_2_7  > -984.837026
s_1_1 + s_1_8 + 1000 r_1_1_8 >= 2
- s_1_1 - s_1_8 - 1000 r_1_1_8 >= -1001
t_1_1 - t_1_8 - 1000.000000 u_1_1_8 - 0.000000 s_1_8  + 2000.000000 r_1_1_8 > -999.322325
s_2_1 + s_2_8 + 1000 r_2_1_8 >= 2
- s_2_1 - s_2_8 - 1000 r_2_1_8 >= -1001
t_2_1 - t_2_8 - 1000.000000 u_2_1_8 - 0.000000 s_2_8  + 2000.000000 r_2_1_8 > -993.941500
s_1_2 + s_1_1 + 1000 r_1_1_2 >= 2
- s_1_2 - s_1_1 - 1000 r_1_1_2 >= -1001
t_1_2 - t_1_1 + 1000.000000 u_1_1_2 - 0.735967 s_1_1  + 0.735967 s_1_7  + 2000.000000 r_1_1_2 > 0.426967
s_2_2 + s_2_1 + 1000 r_2_1_2 >= 2
- s_2_2 - s_2_1 - 1000 r_2_1_2 >= -1001
t_2_2 - t_2_1 + 1000.000000 u_2_1_2 - 0.549630 s_2_1  + 0.549630 s_2_7  + 2000.000000 r_2_1_2 > 10.753800
s_1_2 + s_1_3 + 1000 r_1_2_3 >= 2
- s_1_2 - s_1_3 - 1000 r_1_2_3 >= -1001
t_1_2 - t_1_3 - 1000.000000 u_1_2_3 - 0.735967 s_1_3  + 0.735967 s_1_8  + 2000.000000 r_1_2_3 > -999.346558
s_2_2 + s_2_3 + 1000 r_2_2_3 >= 2
- s_2_2 - s_2_3 - 1000 r_2_2_3 >= -1001
t_2_2 - t_2_3 - 1000.000000 u_2_2_3 - 0.549630 s_2_3  + 0.549630 s_2_8  + 2000.000000 r_2_2_3 > -985.421300
s_1_2 + s_1_4 + 1000 r_1_2_4 >= 2
- s_1_2 - s_1_4 - 1000 r_1_2_4 >= -1001
t_1_2 - t_1_4 - 1000.000000 u_1_2_4 - 1.471935 s_1_4  + 0.735967 s_1_8  + 0.735967 s_1_3  + 2000.000000 r_1_2_4 > -999.602200
s_2_2 + s_2_4 + 1000 r_2_2_4 >= 2
- s_2_2 - s_2_4 - 1000 r_2_2_4 >= -1001
t_2_2 - t_2_4 - 1000.000000 u_2_2_4 - 1.099261 s_2_4  + 0.549630 s_2_8  + 0.549630 s_2_3  + 2000.000000 r_2_2_4 > -989.085700
s_1_2 + s_1_5 + 1000 r_1_2_5 >= 2
- s_1_2 - s_1_5 - 1000 r_1_2_5 >= -1001
t_1_2 - t_1_5 - 1000.000000 u_1_2_5 - 1.471935 s_1_5  + 0.735967 s_1_7  + 0.735967 s_1_8  + 2000.000000 r_1_2_5 > -999.655422
s_2_2 + s_2_5 + 1000 r_2_2_5 >= 2
- s_2_2 - s_2_5 - 1000 r_2_2_5 >= -1001
t_2_2 - t_2_5 - 1000.000000 u_2_2_5 - 1.099261 s_2_5  + 0.549630 s_2_7  + 0.549630 s_2_8  + 2000.000000 r_2_2_5 > -991.566100
t_1_6 - t_1_2 - 1000.735967 s_1_2  + 0.735967 s_1_8  > -999.468736
t_1_6 - t_2_2 - 1000.549630 s_2_2  + 0.549630 s_2_8  > -989.083700
t_2_6 - t_1_2 - 1000.735967 s_1_2  + 0.735967 s_1_8  > -999.468736
t_2_6 - t_2_2 - 1000.549630 s_2_2  + 0.549630 s_2_8  > -989.083700
s_1_2 + s_1_7 + 1000 r_1_2_7 >= 2
- s_1_2 - s_1_7 - 1000 r_1_2_7 >= -1001
t_1_2 - t_1_7 - 1000.000000 u_1_2_7 - 0.000000 s_1_7  + 2000.000000 r_1_2_7 > -997.693211
s_2_2 + s_2_7 + 1000 r_2_2_7 >= 2
- s_2_2 - s_2_7 - 1000 r_2_2_7 >= -1001
t_2_2 - t_2_7 - 1000.000000 u_2_2_7 - 0.000000 s_2_7  + 2000.000000 r_2_2_7 > -984.837026
t_1_2 - t_1_8 - 1000.000000 s_1_8  > -999.322325
t_1_2 - t_2_8 - 1000.000000 s_2_8  > -993.941500
t_2_2 - t_1_8 - 1000.000000 s_1_8  > -999.322325
t_2_2 - t_2_8 - 1000.000000 s_2_8  > -993.941500
s_1_3 + s_1_1 + 1000 r_1_1_3 >= 2
- s_1_3 - s_1_1 - 1000 r_1_1_3 >= -1001
t_1_3 - t_1_1 + 1000.000000 u_1_1_3 - 0.735967 s_1_1  + 0.735967 s_1_7  + 2000.000000 r_1_1_3 > 0.426967
s_2_3 + s_2_1 + 1000 r_2_1_3 >= 2
- s_2_3 - s_2_1 - 1000 r_2_1_3 >= -1001
t_2_3 - t_2_1 + 1000.000000 u_2_1_3 - 0.549630 s_2_1  + 0.549630 s_2_7  + 2000.000000 r_2_1_3 > 10.753800
s_1_3 + s_1_2 + 1000 r_1_2_3 >= 2
- s_1_3 - s_1_2 - 1000 r_1_2_3 >= -1001
t_1_3 - t_1_2 + 1000.000000 u_1_2_3 - 0.735967 s_1_2  + 0.735967 s_1_8  + 2000.000000 r_1_2_3 > 0.531264
s_2_3 + s_2_2 + 1000 r_2_2_3 >= 2
- s_2_3 - s_2_2 - 1000 r_2_2_3 >= -1001
t_2_3 - t_2_2 + 1000.000000 u_2_2_3 - 0.549630 s_2_2  + 0.549630 s_2_8  + 2000.000000 r_2_2_3 > 10.916300
t_1_4 - t_1_3 - 1000.735967 s_1_3  + 0.735967 s_1_8  > -999.346558
t_1_4 - t_2_3 - 1000.549630 s_2_3  + 0.549630 s_2_8  > -985.421300
t_2_4 - t_1_3 - 1000.735967 s_1_3  + 0.735967 s_1_8  > -999.346558
t_2_4 - t_2_3 - 1000.549630 s_2_3  + 0.549630 s_2_8  > -985.421300
s_1_3 + s_1_5 + 1000 r_1_3_5 >= 2
- s_1_3 - s_1_5 - 1000 r_1_3_5 >= -1001
t_1_3 - t_1_5 - 1000.000000 u_1_3_5 - 1.471935 s_1_5  + 0.735967 s_1_7  + 0.735967 s_1_8  + 2000.000000 r_1_3_5 > -999.655422
s_2_3 + s_2_5 + 1000 r_2_3_5 >= 2
- s_2_3 - s_2_5 - 1000 r_2_3_5 >= -1001
t_2_3 - t_2_5 - 1000.000000 u_2_3_5 - 1.099261 s_2_5  + 0.549630 s_2_7  + 0.549630 s_2_8  + 2000.000000 r_2_3_5 > -991.566100
t_1_6 - t_1_3 - 1000.735967 s_1_3  + 0.735967 s_1_8  > -999.346558
t_1_6 - t_2_3 - 1000.549630 s_2_3  + 0.549630 s_2_8  > -985.421300
t_2_6 - t_1_3 - 1000.735967 s_1_3  + 0.735967 s_1_8  > -999.346558
t_2_6 - t_2_3 - 1000.549630 s_2_3  + 0.549630 s_2_8  > -985.421300
s_1_3 + s_1_7 + 1000 r_1_3_7 >= 2
- s_1_3 - s_1_7 - 1000 r_1_3_7 >= -1001
t_1_3 - t_1_7 - 1000.000000 u_1_3_7 - 0.000000 s_1_7  + 2000.000000 r_1_3_7 > -997.693211
s_2_3 + s_2_7 + 1000 r_2_3_7 >= 2
- s_2_3 - s_2_7 - 1000 r_2_3_7 >= -1001
t_2_3 - t_2_7 - 1000.000000 u_2_3_7 - 0.000000 s_2_7  + 2000.000000 r_2_3_7 > -984.837026
t_1_3 - t_1_8 - 1000.000000 s_1_8  > -999.322325
t_1_3 - t_2_8 - 1000.000000 s_2_8  > -993.941500
t_2_3 - t_1_8 - 1000.000000 s_1_8  > -999.322325
t_2_3 - t_2_8 - 1000.000000 s_2_8  > -993.941500
s_1_4 + s_1_1 + 1000 r_1_1_4 >= 2
- s_1_4 - s_1_1 - 1000 r_1_1_4 >= -1001
t_1_4 - t_1_1 + 1000.000000 u_1_1_4 - 0.735967 s_1_1  + 0.735967 s_1_7  + 2000.000000 r_1_1_4 > 0.426967
s_2_4 + s_2_1 + 1000 r_2_1_4 >= 2
- s_2_4 - s_2_1 - 1000 r_2_1_4 >= -1001
t_2_4 - t_2_1 + 1000.000000 u_2_1_4 - 0.549630 s_2_1  + 0.549630 s_2_7  + 2000.000000 r_2_1_4 > 10.753800
s_1_4 + s_1_2 + 1000 r_1_2_4 >= 2
- s_1_4 - s_1_2 - 1000 r_1_2_4 >= -1001
t_1_4 - t_1_2 + 1000.000000 u_1_2_4 - 0.735967 s_1_2  + 0.735967 s_1_8  + 2000.000000 r_1_2_4 > 0.531264
s_2_4 + s_2_2 + 1000 r_2_2_4 >= 2
- s_2_4 - s_2_2 - 1000 r_2_2_4 >= -1001
t_2_4 - t_2_2 + 1000.000000 u_2_2_4 - 0.549630 s_2_2  + 0.549630 s_2_8  + 2000.000000 r_2_2_4 > 10.916300
s_1_4 + s_1_5 + 1000 r_1_4_5 >= 2
- s_1_4 - s_1_5 - 1000 r_1_4_5 >= -1001
t_1_4 - t_1_5 - 1000.000000 u_1_4_5 - 1.471935 s_1_5  + 0.735967 s_1_7  + 0.735967 s_1_8  + 2000.000000 r_1_4_5 > -999.655422
s_2_4 + s_2_5 + 1000 r_2_4_5 >= 2
- s_2_4 - s_2_5 - 1000 r_2_4_5 >= -1001
t_2_4 - t_2_5 - 1000.000000 u_2_4_5 - 1.099261 s_2_5  + 0.549630 s_2_7  + 0.549630 s_2_8  + 2000.000000 r_2_4_5 > -991.566100
t_1_6 - t_1_4 - 1001.471935 s_1_4  + 0.735967 s_1_8  + 0.735967 s_1_3  > -999.602200
t_1_6 - t_2_4 - 1001.099261 s_2_4  + 0.549630 s_2_8  + 0.549630 s_2_3  > -989.085700
t_2_6 - t_1_4 - 1001.471935 s_1_4  + 0.735967 s_1_8  + 0.735967 s_1_3  > -999.602200
t_2_6 - t_2_4 - 1001.099261 s_2_4  + 0.549630 s_2_8  + 0.549630 s_2_3  > -989.085700
s_1_4 + s_1_7 + 1000 r_1_4_7 >= 2
- s_1_4 - s_1_7 - 1000 r_1_4_7 >= -1001
t_1_4 - t_1_7 - 1000.000000 u_1_4_7 - 0.000000 s_1_7  + 2000.000000 r_1_4_7 > -997.693211
s_2_4 + s_2_7 + 1000 r_2_4_7 >= 2
- s_2_4 - s_2_7 - 1000 r_2_4_7 >= -1001
t_2_4 - t_2_7 - 1000.000000 u_2_4_7 - 0.000000 s_2_7  + 2000.000000 r_2_4_7 > -984.837026
t_1_4 - t_1_8 - 1000.000000 s_1_8  > -999.322325
t_1_4 - t_2_8 - 1000.000000 s_2_8  > -993.941500
t_2_4 - t_1_8 - 1000.000000 s_1_8  > -999.322325
t_2_4 - t_2_8 - 1000.000000 s_2_8  > -993.941500
s_1_5 + s_1_1 + 1000 r_1_1_5 >= 2
- s_1_5 - s_1_1 - 1000 r_1_1_5 >= -1001
t_1_5 - t_1_1 + 1000.000000 u_1_1_5 - 0.735967 s_1_1  + 0.735967 s_1_7  + 2000.000000 r_1_1_5 > 0.426967
s_2_5 + s_2_1 + 1000 r_2_1_5 >= 2
- s_2_5 - s_2_1 - 1000 r_2_1_5 >= -1001
t_2_5 - t_2_1 + 1000.000000 u_2_1_5 - 0.549630 s_2_1  + 0.549630 s_2_7  + 2000.000000 r_2_1_5 > 10.753800
s_1_5 + s_1_2 + 1000 r_1_2_5 >= 2
- s_1_5 - s_1_2 - 1000 r_1_2_5 >= -1001
t_1_5 - t_1_2 + 1000.000000 u_1_2_5 - 0.735967 s_1_2  + 0.735967 s_1_8  + 2000.000000 r_1_2_5 > 0.531264
s_2_5 + s_2_2 + 1000 r_2_2_5 >= 2
- s_2_5 - s_2_2 - 1000 r_2_2_5 >= -1001
t_2_5 - t_2_2 + 1000.000000 u_2_2_5 - 0.549630 s_2_2  + 0.549630 s_2_8  + 2000.000000 r_2_2_5 > 10.916300
s_1_5 + s_1_3 + 1000 r_1_3_5 >= 2
- s_1_5 - s_1_3 - 1000 r_1_3_5 >= -1001
t_1_5 - t_1_3 + 1000.000000 u_1_3_5 - 0.735967 s_1_3  + 0.735967 s_1_8  + 2000.000000 r_1_3_5 > 0.653442
s_2_5 + s_2_3 + 1000 r_2_3_5 >= 2
- s_2_5 - s_2_3 - 1000 r_2_3_5 >= -1001
t_2_5 - t_2_3 + 1000.000000 u_2_3_5 - 0.549630 s_2_3  + 0.549630 s_2_8  + 2000.000000 r_2_3_5 > 14.578700
s_1_5 + s_1_4 + 1000 r_1_4_5 >= 2
- s_1_5 - s_1_4 - 1000 r_1_4_5 >= -1001
t_1_5 - t_1_4 + 1000.000000 u_1_4_5 - 1.471935 s_1_4  + 0.735967 s_1_8  + 0.735967 s_1_3  + 2000.000000 r_1_4_5 > 0.397800
s_2_5 + s_2_4 + 1000 r_2_4_5 >= 2
- s_2_5 - s_2_4 - 1000 r_2_4_5 >= -1001
t_2_5 - t_2_4 + 1000.000000 u_2_4_5 - 1.099261 s_2_4  + 0.549630 s_2_8  + 0.549630 s_2_3  + 2000.000000 r_2_4_5 > 10.914300
t_1_6 - t_1_5 - 1001.471935 s_1_5  + 0.735967 s_1_7  + 0.735967 s_1_8  > -999.655422
t_1_6 - t_2_5 - 1001.099261 s_2_5  + 0.549630 s_2_7  + 0.549630 s_2_8  > -991.566100
t_2_6 - t_1_5 - 1001.471935 s_1_5  + 0.735967 s_1_7  + 0.735967 s_1_8  > -999.655422
t_2_6 - t_2_5 - 1001.099261 s_2_5  + 0.549630 s_2_7  + 0.549630 s_2_8  > -991.566100
t_1_5 - t_1_7 - 1000.000000 s_1_7  > -997.693211
t_1_5 - t_2_7 - 1000.000000 s_2_7  > -984.837026
t_2_5 - t_1_7 - 1000.000000 s_1_7  > -997.693211
t_2_5 - t_2_7 - 1000.000000 s_2_7  > -984.837026
t_1_5 - t_1_8 - 1000.000000 s_1_8  > -999.322325
t_1_5 - t_2_8 - 1000.000000 s_2_8  > -993.941500
t_2_5 - t_1_8 - 1000.000000 s_1_8  > -999.322325
t_2_5 - t_2_8 - 1000.000000 s_2_8  > -993.941500
s_1_7 + s_1_2 + 1000 r_1_2_7 >= 2
- s_1_7 - s_1_2 - 1000 r_1_2_7 >= -1001
t_1_7 - t_1_2 + 1000.000000 u_1_2_7 - 0.735967 s_1_2  + 0.735967 s_1_8  + 2000.000000 r_1_2_7 > 0.531264
s_2_7 + s_2_2 + 1000 r_2_2_7 >= 2
- s_2_7 - s_2_2 - 1000 r_2_2_7 >= -1001
t_2_7 - t_2_2 + 1000.000000 u_2_2_7 - 0.549630 s_2_2  + 0.549630 s_2_8  + 2000.000000 r_2_2_7 > 10.916300
s_1_7 + s_1_3 + 1000 r_1_3_7 >= 2
- s_1_7 - s_1_3 - 1000 r_1_3_7 >= -1001
t_1_7 - t_1_3 + 1000.000000 u_1_3_7 - 0.735967 s_1_3  + 0.735967 s_1_8  + 2000.000000 r_1_3_7 > 0.653442
s_2_7 + s_2_3 + 1000 r_2_3_7 >= 2
- s_2_7 - s_2_3 - 1000 r_2_3_7 >= -1001
t_2_7 - t_2_3 + 1000.000000 u_2_3_7 - 0.549630 s_2_3  + 0.549630 s_2_8  + 2000.000000 r_2_3_7 > 14.578700
s_1_7 + s_1_4 + 1000 r_1_4_7 >= 2
- s_1_7 - s_1_4 - 1000 r_1_4_7 >= -1001
t_1_7 - t_1_4 + 1000.000000 u_1_4_7 - 1.471935 s_1_4  + 0.735967 s_1_8  + 0.735967 s_1_3  + 2000.000000 r_1_4_7 > 0.397800
s_2_7 + s_2_4 + 1000 r_2_4_7 >= 2
- s_2_7 - s_2_4 - 1000 r_2_4_7 >= -1001
t_2_7 - t_2_4 + 1000.000000 u_2_4_7 - 1.099261 s_2_4  + 0.549630 s_2_8  + 0.549630 s_2_3  + 2000.000000 r_2_4_7 > 10.914300
s_1_7 + s_1_8 + 1000 r_1_7_8 >= 2
- s_1_7 - s_1_8 - 1000 r_1_7_8 >= -1001
t_1_7 - t_1_8 - 1000.000000 u_1_7_8 - 0.000000 s_1_8  + 2000.000000 r_1_7_8 > -999.322325
s_2_7 + s_2_8 + 1000 r_2_7_8 >= 2
- s_2_7 - s_2_8 - 1000 r_2_7_8 >= -1001
t_2_7 - t_2_8 - 1000.000000 u_2_7_8 - 0.000000 s_2_8  + 2000.000000 r_2_7_8 > -993.941500
s_1_8 + s_1_1 + 1000 r_1_1_8 >= 2
- s_1_8 - s_1_1 - 1000 r_1_1_8 >= -1001
t_1_8 - t_1_1 + 1000.000000 u_1_1_8 - 0.735967 s_1_1  + 0.735967 s_1_7  + 2000.000000 r_1_1_8 > 0.426967
s_2_8 + s_2_1 + 1000 r_2_1_8 >= 2
- s_2_8 - s_2_1 - 1000 r_2_1_8 >= -1001
t_2_8 - t_2_1 + 1000.000000 u_2_1_8 - 0.549630 s_2_1  + 0.549630 s_2_7  + 2000.000000 r_2_1_8 > 10.753800
s_1_8 + s_1_7 + 1000 r_1_7_8 >= 2
- s_1_8 - s_1_7 - 1000 r_1_7_8 >= -1001
t_1_8 - t_1_7 + 1000.000000 u_1_7_8 - 0.000000 s_1_7  + 2000.000000 r_1_7_8 > 2.306789
s_2_8 + s_2_7 + 1000 r_2_7_8 >= 2
- s_2_8 - s_2_7 - 1000 r_2_7_8 >= -1001
t_2_8 - t_2_7 + 1000.000000 u_2_7_8 - 0.000000 s_2_7  + 2000.000000 r_2_7_8 > 15.162974
Binary
s_1_1
s_2_1
s_1_2
s_2_2
s_1_3
s_2_3
s_1_4
s_2_4
s_1_5
s_2_5
s_1_6
s_2_6
s_1_7
s_2_7
s_1_8
s_2_8
u_1_1_2
r_1_1_2
u_2_1_2
r_2_1_2
u_1_1_3
r_1_1_3
u_2_1_3
r_2_1_3
u_1_1_4
r_1_1_4
u_2_1_4
r_2_1_4
u_1_1_5
r_1_1_5
u_2_1_5
r_2_1_5
u_1_1_8
r_1_1_8
u_2_1_8
r_2_1_8
u_1_2_3
r_1_2_3
u_2_2_3
r_2_2_3
u_1_2_4
r_1_2_4
u_2_2_4
r_2_2_4
u_1_2_5
r_1_2_5
u_2_2_5
r_2_2_5
u_1_2_7
r_1_2_7
u_2_2_7
r_2_2_7
u_1_3_5
r_1_3_5
u_2_3_5
r_2_3_5
u_1_3_7
r_1_3_7
u_2_3_7
r_2_3_7
u_1_4_5
r_1_4_5
u_2_4_5
r_2_4_5
u_1_4_7
r_1_4_7
u_2_4_7
r_2_4_7
u_1_7_8
r_1_7_8
u_2_7_8
r_2_7_8

End
